HUN,8,6,268
4,25,5,48,3,50,0,65,2,23,1,55
3,95,2,55,5,25,1,86,4,78,0,43
1,81,4,42,5,96,3,85,2,87,0,75
2,30,4,58,3,64,5,6,0,25,1,7
3,57,2,6,5,46,0,28,4,68,1,76
4,80,3,5,0,31,1,22,2,83,5,28
1,18,0,65,4,21,5,18,2,57,3,79
4,19,5,56,2,51,0,50,1,68,3,38
